
(set-logic ALL) 

(declare-datatype MyList ((Nil) (Cons (head Real) (tail MyList)) )) 
(declare-fun l0 () MyList) 
(declare-fun l1 () MyList) 
(declare-fun l2 () MyList) 
(declare-fun l3 () MyList) 
(declare-fun i0 () Real) 
(declare-fun i1 () Real) 
(assert (= l0 Nil) )
(assert (not (= l0 Nil)) )
(assert (and (= l3 Nil) (= l2 l2) (is-Cons l2) (= l3 Nil)) )
(assert (is-Nil l0) )
(assert (is-Nil Nil) )
(assert (is-Cons l2) )
(assert (or (= l2 Nil) (= l0 l1) (= l2 l2) (is-Cons Nil)) )
(assert (is-Nil Nil) )
(check-sat)
